1635840000
1635858000
1635926400
1635944400
1636012800
1636030800
1636099200
1636109100
1636112700
1636120800
1636358400
1636376400
1636444800
1636450200
1636531200
1636549200
1636704000
1636713900
1636717500
1636725600
1636963200
1636981200
1637049600
1637067600
1637136000
1637154000
1637222400
1637240400
1637308800
1637315100
1637318700
1637330400
1637568000
1637586000
1637654400
1637672400
1637740800
1637758800
1637827200
1637845200
1637913600
1637919900
1637923500
1637935200
1638172800
1638190800
1638259200
1638277200
